p cnf 1315 2951
1 2 0
3 2 0
4 2 0
5 2 0
6 2 0
7 2 0
8 2 0
-9 0
2 -10 -11 0
10 -2 -11 0
11 -2 -10 0
10 2 11 0
-11 0
3 12 0
4 12 0
5 12 0
6 12 0
7 12 0
8 12 0
-13 0
12 -14 -15 0
14 -12 -15 0
15 -12 -14 0
14 12 15 0
-15 0
4 16 0
5 16 0
6 16 0
7 16 0
8 16 0
-17 0
16 -18 -19 0
18 -16 -19 0
19 -16 -18 0
18 16 19 0
-19 0
16 -20 -21 0
20 -16 -21 0
21 -16 -20 0
20 16 21 0
-21 0
16 -22 -23 0
22 -16 -23 0
23 -16 -22 0
22 16 23 0
-23 0
16 -24 -25 0
24 -16 -25 0
25 -16 -24 0
24 16 25 0
-25 0
16 -26 -27 0
26 -16 -27 0
27 -16 -26 0
26 16 27 0
-27 0
28 29 0
30 29 0
31 29 0
32 29 0
33 29 0
34 29 0
35 29 0
36 29 0
37 29 0
38 29 0
39 29 0
-40 0
29 -41 -42 0
41 -29 -42 0
42 -29 -41 0
41 29 42 0
-42 0
30 43 0
31 43 0
32 43 0
33 43 0
34 43 0
35 43 0
36 43 0
37 43 0
38 43 0
39 43 0
-44 0
43 -45 -46 0
45 -43 -46 0
46 -43 -45 0
45 43 46 0
-46 0
31 47 0
32 47 0
33 47 0
34 47 0
35 47 0
36 47 0
37 47 0
38 47 0
39 47 0
-48 0
47 -49 -50 0
49 -47 -50 0
50 -47 -49 0
49 47 50 0
-50 0
32 51 0
33 51 0
34 51 0
35 51 0
36 51 0
37 51 0
38 51 0
39 51 0
-52 0
51 -53 -54 0
53 -51 -54 0
54 -51 -53 0
53 51 54 0
-54 0
33 55 0
34 55 0
35 55 0
36 55 0
37 55 0
38 55 0
39 55 0
-56 0
55 -57 -58 0
57 -55 -58 0
58 -55 -57 0
57 55 58 0
-58 0
34 59 0
35 59 0
36 59 0
37 59 0
38 59 0
39 59 0
-60 0
59 -61 -62 0
61 -59 -62 0
62 -59 -61 0
61 59 62 0
-62 0
59 -63 -64 0
63 -59 -64 0
64 -59 -63 0
63 59 64 0
-64 0
59 -65 -66 0
65 -59 -66 0
66 -59 -65 0
65 59 66 0
-66 0
59 -67 -68 0
67 -59 -68 0
68 -59 -67 0
67 59 68 0
-68 0
59 -69 -70 0
69 -59 -70 0
70 -59 -69 0
69 59 70 0
-70 0
59 -71 -72 0
71 -59 -72 0
72 -59 -71 0
71 59 72 0
-72 0
73 74 0
75 74 0
76 74 0
77 74 0
78 74 0
79 74 0
80 74 0
81 74 0
82 74 0
83 74 0
-84 0
74 -85 -86 0
85 -74 -86 0
86 -74 -85 0
85 74 86 0
-86 0
75 87 0
76 87 0
77 87 0
78 87 0
79 87 0
80 87 0
81 87 0
82 87 0
83 87 0
-88 0
87 -89 -90 0
89 -87 -90 0
90 -87 -89 0
89 87 90 0
-90 0
76 91 0
77 91 0
78 91 0
79 91 0
80 91 0
81 91 0
82 91 0
83 91 0
-92 0
91 -93 -94 0
93 -91 -94 0
94 -91 -93 0
93 91 94 0
-94 0
77 95 0
78 95 0
79 95 0
80 95 0
81 95 0
82 95 0
83 95 0
-96 0
95 -97 -98 0
97 -95 -98 0
98 -95 -97 0
97 95 98 0
-98 0
78 99 0
79 99 0
80 99 0
81 99 0
82 99 0
83 99 0
-100 0
99 -101 -102 0
101 -99 -102 0
102 -99 -101 0
101 99 102 0
-102 0
79 103 0
80 103 0
81 103 0
82 103 0
83 103 0
-104 0
103 -105 -106 0
105 -103 -106 0
106 -103 -105 0
105 103 106 0
-106 0
103 -107 -108 0
107 -103 -108 0
108 -103 -107 0
107 103 108 0
-108 0
103 -109 -110 0
109 -103 -110 0
110 -103 -109 0
109 103 110 0
-110 0
103 -111 -112 0
111 -103 -112 0
112 -103 -111 0
111 103 112 0
-112 0
103 -113 -114 0
113 -103 -114 0
114 -103 -113 0
113 103 114 0
-114 0
115 116 0
117 116 0
118 116 0
119 116 0
-120 0
116 -121 -122 0
121 -116 -122 0
122 -116 -121 0
121 116 122 0
-122 0
117 123 0
118 123 0
119 123 0
-117 -118 -119 -123 0
123 -124 -125 0
124 -123 -125 0
125 -123 -124 0
124 123 125 0
-125 0
118 126 0
119 126 0
-118 -119 -126 0
126 -127 -128 0
127 -126 -128 0
128 -126 -127 0
127 126 128 0
-128 0
129 -119 0
119 -129 0
130 131 0
132 131 0
133 131 0
134 131 0
135 131 0
136 131 0
137 131 0
138 131 0
139 131 0
140 131 0
-141 0
131 -142 -143 0
142 -131 -143 0
143 -131 -142 0
142 131 143 0
-143 0
132 144 0
133 144 0
134 144 0
135 144 0
136 144 0
137 144 0
138 144 0
139 144 0
140 144 0
-145 0
144 -146 -147 0
146 -144 -147 0
147 -144 -146 0
146 144 147 0
-147 0
133 148 0
134 148 0
135 148 0
136 148 0
137 148 0
138 148 0
139 148 0
140 148 0
-149 0
148 -150 -151 0
150 -148 -151 0
151 -148 -150 0
150 148 151 0
-151 0
134 152 0
135 152 0
136 152 0
137 152 0
138 152 0
139 152 0
140 152 0
-153 0
152 -154 -155 0
154 -152 -155 0
155 -152 -154 0
154 152 155 0
-155 0
135 156 0
136 156 0
137 156 0
138 156 0
139 156 0
140 156 0
-157 0
156 -158 -159 0
158 -156 -159 0
159 -156 -158 0
158 156 159 0
-159 0
136 160 0
137 160 0
138 160 0
139 160 0
140 160 0
-161 0
160 -162 -163 0
162 -160 -163 0
163 -160 -162 0
162 160 163 0
-163 0
160 -164 -165 0
164 -160 -165 0
165 -160 -164 0
164 160 165 0
-165 0
160 -166 -167 0
166 -160 -167 0
167 -160 -166 0
166 160 167 0
-167 0
160 -168 -169 0
168 -160 -169 0
169 -160 -168 0
168 160 169 0
-169 0
160 -170 -171 0
170 -160 -171 0
171 -160 -170 0
170 160 171 0
-171 0
136 172 0
137 172 0
138 172 0
139 172 0
140 172 0
173 172 0
174 172 0
175 172 0
176 172 0
-177 0
172 -178 -179 0
178 -172 -179 0
179 -172 -178 0
178 172 179 0
-179 0
136 180 0
137 180 0
138 180 0
139 180 0
140 180 0
174 180 0
175 180 0
176 180 0
-181 0
180 -182 -183 0
182 -180 -183 0
183 -180 -182 0
182 180 183 0
-183 0
136 184 0
137 184 0
138 184 0
139 184 0
140 184 0
175 184 0
176 184 0
-185 0
184 -186 -187 0
186 -184 -187 0
187 -184 -186 0
186 184 187 0
-187 0
136 188 0
137 188 0
138 188 0
139 188 0
140 188 0
176 188 0
-189 0
188 -190 -191 0
190 -188 -191 0
191 -188 -190 0
190 188 191 0
-191 0
192 193 0
194 193 0
195 193 0
196 193 0
197 193 0
198 193 0
199 193 0
200 193 0
201 193 0
202 193 0
203 193 0
-204 0
193 -205 -206 0
205 -193 -206 0
206 -193 -205 0
205 193 206 0
-206 0
194 207 0
195 207 0
196 207 0
197 207 0
198 207 0
199 207 0
200 207 0
201 207 0
202 207 0
203 207 0
-208 0
207 -209 -210 0
209 -207 -210 0
210 -207 -209 0
209 207 210 0
-210 0
195 211 0
196 211 0
197 211 0
198 211 0
199 211 0
200 211 0
201 211 0
202 211 0
203 211 0
-212 0
211 -213 -214 0
213 -211 -214 0
214 -211 -213 0
213 211 214 0
-214 0
196 215 0
197 215 0
198 215 0
199 215 0
200 215 0
201 215 0
202 215 0
203 215 0
-216 0
215 -217 -218 0
217 -215 -218 0
218 -215 -217 0
217 215 218 0
-218 0
197 219 0
198 219 0
199 219 0
200 219 0
201 219 0
202 219 0
203 219 0
-220 0
219 -221 -222 0
221 -219 -222 0
222 -219 -221 0
221 219 222 0
-222 0
198 223 0
199 223 0
200 223 0
201 223 0
202 223 0
203 223 0
-224 0
223 -225 -226 0
225 -223 -226 0
226 -223 -225 0
225 223 226 0
-226 0
223 -227 -228 0
227 -223 -228 0
228 -223 -227 0
227 223 228 0
-228 0
223 -229 -230 0
229 -223 -230 0
230 -223 -229 0
229 223 230 0
-230 0
223 -231 -232 0
231 -223 -232 0
232 -223 -231 0
231 223 232 0
-232 0
223 -233 -234 0
233 -223 -234 0
234 -223 -233 0
233 223 234 0
-234 0
223 -235 -236 0
235 -223 -236 0
236 -223 -235 0
235 223 236 0
-236 0
237 238 0
239 238 0
240 238 0
241 238 0
242 238 0
243 238 0
244 238 0
245 238 0
246 238 0
-247 0
238 -248 -249 0
248 -238 -249 0
249 -238 -248 0
248 238 249 0
-249 0
239 250 0
240 250 0
241 250 0
242 250 0
243 250 0
244 250 0
245 250 0
246 250 0
-251 0
250 -252 -253 0
252 -250 -253 0
253 -250 -252 0
252 250 253 0
-253 0
240 254 0
241 254 0
242 254 0
243 254 0
244 254 0
245 254 0
246 254 0
-255 0
254 -256 -257 0
256 -254 -257 0
257 -254 -256 0
256 254 257 0
-257 0
241 258 0
242 258 0
243 258 0
244 258 0
245 258 0
246 258 0
-259 0
258 -260 -261 0
260 -258 -261 0
261 -258 -260 0
260 258 261 0
-261 0
242 262 0
243 262 0
244 262 0
245 262 0
246 262 0
-263 0
262 -264 -265 0
264 -262 -265 0
265 -262 -264 0
264 262 265 0
-265 0
243 266 0
244 266 0
245 266 0
246 266 0
-267 0
266 -268 -269 0
268 -266 -269 0
269 -266 -268 0
268 266 269 0
-269 0
266 -270 -271 0
270 -266 -271 0
271 -266 -270 0
270 266 271 0
-271 0
266 -272 -273 0
272 -266 -273 0
273 -266 -272 0
272 266 273 0
-273 0
266 -274 -275 0
274 -266 -275 0
275 -266 -274 0
274 266 275 0
-275 0
276 277 0
278 277 0
279 277 0
280 277 0
281 277 0
282 277 0
283 277 0
284 277 0
285 277 0
286 277 0
287 277 0
-288 0
277 -289 -290 0
289 -277 -290 0
290 -277 -289 0
289 277 290 0
-290 0
278 291 0
279 291 0
280 291 0
281 291 0
282 291 0
283 291 0
284 291 0
285 291 0
286 291 0
287 291 0
-292 0
291 -293 -294 0
293 -291 -294 0
294 -291 -293 0
293 291 294 0
-294 0
279 295 0
280 295 0
281 295 0
282 295 0
283 295 0
284 295 0
285 295 0
286 295 0
287 295 0
-296 0
295 -297 -298 0
297 -295 -298 0
298 -295 -297 0
297 295 298 0
-298 0
280 299 0
281 299 0
282 299 0
283 299 0
284 299 0
285 299 0
286 299 0
287 299 0
-300 0
299 -301 -302 0
301 -299 -302 0
302 -299 -301 0
301 299 302 0
-302 0
281 303 0
282 303 0
283 303 0
284 303 0
285 303 0
286 303 0
287 303 0
-304 0
303 -305 -306 0
305 -303 -306 0
306 -303 -305 0
305 303 306 0
-306 0
282 307 0
283 307 0
284 307 0
285 307 0
286 307 0
287 307 0
-308 0
307 -309 -310 0
309 -307 -310 0
310 -307 -309 0
309 307 310 0
-310 0
307 -311 -312 0
311 -307 -312 0
312 -307 -311 0
311 307 312 0
-312 0
307 -313 -314 0
313 -307 -314 0
314 -307 -313 0
313 307 314 0
-314 0
307 -315 -316 0
315 -307 -316 0
316 -307 -315 0
315 307 316 0
-316 0
307 -317 -318 0
317 -307 -318 0
318 -307 -317 0
317 307 318 0
-318 0
307 -319 -320 0
319 -307 -320 0
320 -307 -319 0
319 307 320 0
-320 0
321 322 0
323 322 0
324 322 0
325 322 0
326 322 0
327 322 0
328 322 0
329 322 0
330 322 0
331 322 0
-332 0
322 -333 -334 0
333 -322 -334 0
334 -322 -333 0
333 322 334 0
-334 0
323 335 0
324 335 0
325 335 0
326 335 0
327 335 0
328 335 0
329 335 0
330 335 0
331 335 0
-336 0
335 -337 -338 0
337 -335 -338 0
338 -335 -337 0
337 335 338 0
-338 0
324 339 0
325 339 0
326 339 0
327 339 0
328 339 0
329 339 0
330 339 0
331 339 0
-340 0
339 -341 -342 0
341 -339 -342 0
342 -339 -341 0
341 339 342 0
-342 0
325 343 0
326 343 0
327 343 0
328 343 0
329 343 0
330 343 0
331 343 0
-344 0
343 -345 -346 0
345 -343 -346 0
346 -343 -345 0
345 343 346 0
-346 0
326 347 0
327 347 0
328 347 0
329 347 0
330 347 0
331 347 0
-348 0
347 -349 -350 0
349 -347 -350 0
350 -347 -349 0
349 347 350 0
-350 0
347 -351 -352 0
351 -347 -352 0
352 -347 -351 0
351 347 352 0
-352 0
347 -353 -354 0
353 -347 -354 0
354 -347 -353 0
353 347 354 0
-354 0
347 -355 -356 0
355 -347 -356 0
356 -347 -355 0
355 347 356 0
-356 0
347 -357 -358 0
357 -347 -358 0
358 -347 -357 0
357 347 358 0
-358 0
347 -359 -360 0
359 -347 -360 0
360 -347 -359 0
359 347 360 0
-360 0
361 362 0
363 362 0
364 362 0
365 362 0
366 362 0
367 362 0
368 362 0
369 362 0
370 362 0
-371 0
-372 362 -373 0
372 -362 -373 0
373 -362 -372 0
372 362 373 0
-373 0
363 374 0
364 374 0
365 374 0
366 374 0
367 374 0
368 374 0
369 374 0
370 374 0
-375 0
374 -376 -377 0
376 -374 -377 0
377 -374 -376 0
376 374 377 0
-377 0
364 378 0
365 378 0
366 378 0
367 378 0
368 378 0
369 378 0
370 378 0
-379 0
378 -380 -381 0
380 -378 -381 0
381 -378 -380 0
380 378 381 0
-381 0
365 382 0
366 382 0
367 382 0
368 382 0
369 382 0
370 382 0
-383 0
382 -384 -385 0
384 -382 -385 0
385 -382 -384 0
384 382 385 0
-385 0
366 386 0
367 386 0
368 386 0
369 386 0
370 386 0
-387 0
386 -388 -389 0
388 -386 -389 0
389 -386 -388 0
388 386 389 0
-389 0
386 -390 -391 0
390 -386 -391 0
391 -386 -390 0
390 386 391 0
-391 0
386 -392 -393 0
392 -386 -393 0
393 -386 -392 0
392 386 393 0
-393 0
386 -394 -395 0
394 -386 -395 0
395 -386 -394 0
394 386 395 0
-395 0
386 -396 -397 0
396 -386 -397 0
397 -386 -396 0
396 386 397 0
-397 0
398 399 0
400 399 0
401 399 0
402 399 0
403 399 0
404 399 0
405 399 0
406 399 0
407 399 0
408 399 0
409 399 0
-410 0
-411 399 -412 0
411 -399 -412 0
412 -399 -411 0
411 399 412 0
-412 0
400 413 0
401 413 0
402 413 0
403 413 0
404 413 0
405 413 0
406 413 0
407 413 0
408 413 0
409 413 0
-414 0
413 -415 -416 0
415 -413 -416 0
416 -413 -415 0
415 413 416 0
-416 0
401 417 0
402 417 0
403 417 0
404 417 0
405 417 0
406 417 0
407 417 0
408 417 0
409 417 0
-418 0
417 -419 -420 0
419 -417 -420 0
420 -417 -419 0
419 417 420 0
-420 0
402 421 0
403 421 0
404 421 0
405 421 0
406 421 0
407 421 0
408 421 0
409 421 0
-422 0
421 -423 -424 0
423 -421 -424 0
424 -421 -423 0
423 421 424 0
-424 0
403 425 0
404 425 0
405 425 0
406 425 0
407 425 0
408 425 0
409 425 0
-426 0
425 -427 -428 0
427 -425 -428 0
428 -425 -427 0
427 425 428 0
-428 0
404 429 0
405 429 0
406 429 0
407 429 0
408 429 0
409 429 0
-430 0
429 -431 -432 0
431 -429 -432 0
432 -429 -431 0
431 429 432 0
-432 0
429 -433 -434 0
433 -429 -434 0
434 -429 -433 0
433 429 434 0
-434 0
429 -435 -436 0
435 -429 -436 0
436 -429 -435 0
435 429 436 0
-436 0
429 -437 -438 0
437 -429 -438 0
438 -429 -437 0
437 429 438 0
-438 0
429 -439 -440 0
439 -429 -440 0
440 -429 -439 0
439 429 440 0
-440 0
429 -441 -442 0
441 -429 -442 0
442 -429 -441 0
441 429 442 0
-442 0
443 444 0
445 444 0
446 444 0
447 444 0
448 444 0
449 444 0
450 444 0
451 444 0
452 444 0
453 444 0
454 444 0
-455 0
-456 444 -457 0
456 -444 -457 0
457 -444 -456 0
456 444 457 0
-457 0
445 458 0
446 458 0
447 458 0
448 458 0
449 458 0
450 458 0
451 458 0
452 458 0
453 458 0
454 458 0
-459 0
458 -460 -461 0
460 -458 -461 0
461 -458 -460 0
460 458 461 0
-461 0
446 462 0
447 462 0
448 462 0
449 462 0
450 462 0
451 462 0
452 462 0
453 462 0
454 462 0
-463 0
462 -464 -465 0
464 -462 -465 0
465 -462 -464 0
464 462 465 0
-465 0
447 466 0
448 466 0
449 466 0
450 466 0
451 466 0
452 466 0
453 466 0
454 466 0
-467 0
466 -468 -469 0
468 -466 -469 0
469 -466 -468 0
468 466 469 0
-469 0
448 470 0
449 470 0
450 470 0
451 470 0
452 470 0
453 470 0
454 470 0
-471 0
470 -472 -473 0
472 -470 -473 0
473 -470 -472 0
472 470 473 0
-473 0
449 474 0
450 474 0
451 474 0
452 474 0
453 474 0
454 474 0
-475 0
474 -476 -477 0
476 -474 -477 0
477 -474 -476 0
476 474 477 0
-477 0
474 -478 -479 0
478 -474 -479 0
479 -474 -478 0
478 474 479 0
-479 0
474 -480 -481 0
480 -474 -481 0
481 -474 -480 0
480 474 481 0
-481 0
474 -482 -483 0
482 -474 -483 0
483 -474 -482 0
482 474 483 0
-483 0
474 -484 -485 0
484 -474 -485 0
485 -474 -484 0
484 474 485 0
-485 0
474 -486 -487 0
486 -474 -487 0
487 -474 -486 0
486 474 487 0
-487 0
488 489 0
490 489 0
491 489 0
492 489 0
493 489 0
494 489 0
495 489 0
496 489 0
-497 0
-498 489 -499 0
498 -489 -499 0
499 -489 -498 0
498 489 499 0
-499 0
490 500 0
491 500 0
492 500 0
493 500 0
494 500 0
495 500 0
496 500 0
-501 0
500 -502 -503 0
502 -500 -503 0
503 -500 -502 0
502 500 503 0
-503 0
491 504 0
492 504 0
493 504 0
494 504 0
495 504 0
496 504 0
-505 0
504 -506 -507 0
506 -504 -507 0
507 -504 -506 0
506 504 507 0
-507 0
492 508 0
493 508 0
494 508 0
495 508 0
496 508 0
-509 0
508 -510 -511 0
510 -508 -511 0
511 -508 -510 0
510 508 511 0
-511 0
493 512 0
494 512 0
495 512 0
496 512 0
-513 0
512 -514 -515 0
514 -512 -515 0
515 -512 -514 0
514 512 515 0
-515 0
512 -516 -517 0
516 -512 -517 0
517 -512 -516 0
516 512 517 0
-517 0
512 -518 -519 0
518 -512 -519 0
519 -512 -518 0
518 512 519 0
-519 0
512 -520 -521 0
520 -512 -521 0
521 -512 -520 0
520 512 521 0
-521 0
522 523 0
524 523 0
525 523 0
526 523 0
527 523 0
528 523 0
-529 0
-530 523 -531 0
530 -523 -531 0
531 -523 -530 0
530 523 531 0
-531 0
524 532 0
525 532 0
526 532 0
527 532 0
528 532 0
-533 0
532 -534 -535 0
534 -532 -535 0
535 -532 -534 0
534 532 535 0
-535 0
525 536 0
526 536 0
527 536 0
528 536 0
-537 0
536 -538 -539 0
538 -536 -539 0
539 -536 -538 0
538 536 539 0
-539 0
536 -540 -541 0
540 -536 -541 0
541 -536 -540 0
540 536 541 0
-541 0
536 -542 -543 0
542 -536 -543 0
543 -536 -542 0
542 536 543 0
-543 0
536 -544 -545 0
544 -536 -545 0
545 -536 -544 0
544 536 545 0
-545 0
546 547 0
548 547 0
549 547 0
550 547 0
551 547 0
552 547 0
553 547 0
554 547 0
555 547 0
556 547 0
557 547 0
-558 0
-559 547 -560 0
559 -547 -560 0
560 -547 -559 0
559 547 560 0
-560 0
548 561 0
549 561 0
550 561 0
551 561 0
552 561 0
553 561 0
554 561 0
555 561 0
556 561 0
557 561 0
-562 0
561 -563 -564 0
563 -561 -564 0
564 -561 -563 0
563 561 564 0
-564 0
549 565 0
550 565 0
551 565 0
552 565 0
553 565 0
554 565 0
555 565 0
556 565 0
557 565 0
-566 0
565 -567 -568 0
567 -565 -568 0
568 -565 -567 0
567 565 568 0
-568 0
550 569 0
551 569 0
552 569 0
553 569 0
554 569 0
555 569 0
556 569 0
557 569 0
-570 0
569 -571 -572 0
571 -569 -572 0
572 -569 -571 0
571 569 572 0
-572 0
551 573 0
552 573 0
553 573 0
554 573 0
555 573 0
556 573 0
557 573 0
-574 0
573 -575 -576 0
575 -573 -576 0
576 -573 -575 0
575 573 576 0
-576 0
552 577 0
553 577 0
554 577 0
555 577 0
556 577 0
557 577 0
-578 0
577 -579 -580 0
579 -577 -580 0
580 -577 -579 0
579 577 580 0
-580 0
577 -581 -582 0
581 -577 -582 0
582 -577 -581 0
581 577 582 0
-582 0
577 -583 -584 0
583 -577 -584 0
584 -577 -583 0
583 577 584 0
-584 0
577 -585 -586 0
585 -577 -586 0
586 -577 -585 0
585 577 586 0
-586 0
577 -587 -588 0
587 -577 -588 0
588 -577 -587 0
587 577 588 0
-588 0
577 -589 -590 0
589 -577 -590 0
590 -577 -589 0
589 577 590 0
-590 0
591 592 0
593 592 0
594 592 0
595 592 0
596 592 0
597 592 0
598 592 0
599 592 0
600 592 0
601 592 0
-602 0
-603 592 -604 0
603 -592 -604 0
604 -592 -603 0
603 592 604 0
-604 0
593 605 0
594 605 0
595 605 0
596 605 0
597 605 0
598 605 0
599 605 0
600 605 0
601 605 0
-606 0
605 -607 -608 0
607 -605 -608 0
608 -605 -607 0
607 605 608 0
-608 0
594 609 0
595 609 0
596 609 0
597 609 0
598 609 0
599 609 0
600 609 0
601 609 0
-610 0
609 -611 -612 0
611 -609 -612 0
612 -609 -611 0
611 609 612 0
-612 0
595 613 0
596 613 0
597 613 0
598 613 0
599 613 0
600 613 0
601 613 0
-614 0
613 -615 -616 0
615 -613 -616 0
616 -613 -615 0
615 613 616 0
-616 0
596 617 0
597 617 0
598 617 0
599 617 0
600 617 0
601 617 0
-618 0
617 -619 -620 0
619 -617 -620 0
620 -617 -619 0
619 617 620 0
-620 0
617 -621 -622 0
621 -617 -622 0
622 -617 -621 0
621 617 622 0
-622 0
617 -623 -624 0
623 -617 -624 0
624 -617 -623 0
623 617 624 0
-624 0
617 -625 -626 0
625 -617 -626 0
626 -617 -625 0
625 617 626 0
-626 0
617 -627 -628 0
627 -617 -628 0
628 -617 -627 0
627 617 628 0
-628 0
617 -629 -630 0
629 -617 -630 0
630 -617 -629 0
629 617 630 0
-630 0
631 632 0
633 632 0
634 632 0
635 632 0
636 632 0
637 632 0
638 632 0
639 632 0
640 632 0
641 632 0
642 632 0
643 632 0
-644 0
-645 632 -646 0
645 -632 -646 0
646 -632 -645 0
645 632 646 0
-646 0
633 647 0
634 647 0
635 647 0
636 647 0
637 647 0
638 647 0
639 647 0
640 647 0
641 647 0
642 647 0
643 647 0
-648 0
647 -649 -650 0
649 -647 -650 0
650 -647 -649 0
649 647 650 0
-650 0
634 651 0
635 651 0
636 651 0
637 651 0
638 651 0
639 651 0
640 651 0
641 651 0
642 651 0
643 651 0
-652 0
651 -653 -654 0
653 -651 -654 0
654 -651 -653 0
653 651 654 0
-654 0
635 655 0
636 655 0
637 655 0
638 655 0
639 655 0
640 655 0
641 655 0
642 655 0
643 655 0
-656 0
655 -657 -658 0
657 -655 -658 0
658 -655 -657 0
657 655 658 0
-658 0
636 659 0
637 659 0
638 659 0
639 659 0
640 659 0
641 659 0
642 659 0
643 659 0
-660 0
659 -661 -662 0
661 -659 -662 0
662 -659 -661 0
661 659 662 0
-662 0
637 663 0
638 663 0
639 663 0
640 663 0
641 663 0
642 663 0
643 663 0
-664 0
663 -665 -666 0
665 -663 -666 0
666 -663 -665 0
665 663 666 0
-666 0
638 667 0
639 667 0
640 667 0
641 667 0
642 667 0
643 667 0
-668 0
667 -669 -670 0
669 -667 -670 0
670 -667 -669 0
669 667 670 0
-670 0
667 -671 -672 0
671 -667 -672 0
672 -667 -671 0
671 667 672 0
-672 0
667 -673 -674 0
673 -667 -674 0
674 -667 -673 0
673 667 674 0
-674 0
667 -675 -676 0
675 -667 -676 0
676 -667 -675 0
675 667 676 0
-676 0
667 -677 -678 0
677 -667 -678 0
678 -667 -677 0
677 667 678 0
-678 0
667 -679 -680 0
679 -667 -680 0
680 -667 -679 0
679 667 680 0
-680 0
681 682 0
683 682 0
684 682 0
685 682 0
686 682 0
687 682 0
688 682 0
689 682 0
690 682 0
691 682 0
-692 0
-693 682 -694 0
693 -682 -694 0
694 -682 -693 0
693 682 694 0
-694 0
683 695 0
684 695 0
685 695 0
686 695 0
687 695 0
688 695 0
689 695 0
690 695 0
691 695 0
-696 0
695 -697 -698 0
697 -695 -698 0
698 -695 -697 0
697 695 698 0
-698 0
684 699 0
685 699 0
686 699 0
687 699 0
688 699 0
689 699 0
690 699 0
691 699 0
-700 0
699 -701 -702 0
701 -699 -702 0
702 -699 -701 0
701 699 702 0
-702 0
685 703 0
686 703 0
687 703 0
688 703 0
689 703 0
690 703 0
691 703 0
-704 0
703 -705 -706 0
705 -703 -706 0
706 -703 -705 0
705 703 706 0
-706 0
686 707 0
687 707 0
688 707 0
689 707 0
690 707 0
691 707 0
-708 0
707 -709 -710 0
709 -707 -710 0
710 -707 -709 0
709 707 710 0
-710 0
687 711 0
688 711 0
689 711 0
690 711 0
691 711 0
-712 0
711 -713 -714 0
713 -711 -714 0
714 -711 -713 0
713 711 714 0
-714 0
688 715 0
689 715 0
690 715 0
691 715 0
-716 0
715 -717 -718 0
717 -715 -718 0
718 -715 -717 0
717 715 718 0
-718 0
715 -719 -720 0
719 -715 -720 0
720 -715 -719 0
719 715 720 0
-720 0
715 -721 -722 0
721 -715 -722 0
722 -715 -721 0
721 715 722 0
-722 0
715 -723 -724 0
723 -715 -724 0
724 -715 -723 0
723 715 724 0
-724 0
725 726 0
727 726 0
728 726 0
729 726 0
730 726 0
731 726 0
732 726 0
733 726 0
734 726 0
-735 0
-736 726 -737 0
736 -726 -737 0
737 -726 -736 0
736 726 737 0
-737 0
727 738 0
728 738 0
729 738 0
730 738 0
731 738 0
732 738 0
733 738 0
734 738 0
-739 0
738 -740 -741 0
740 -738 -741 0
741 -738 -740 0
740 738 741 0
-741 0
728 742 0
729 742 0
730 742 0
731 742 0
732 742 0
733 742 0
734 742 0
-743 0
742 -744 -745 0
744 -742 -745 0
745 -742 -744 0
744 742 745 0
-745 0
729 746 0
730 746 0
731 746 0
732 746 0
733 746 0
734 746 0
-747 0
746 -748 -749 0
748 -746 -749 0
749 -746 -748 0
748 746 749 0
-749 0
730 750 0
731 750 0
732 750 0
733 750 0
734 750 0
-751 0
750 -752 -753 0
752 -750 -753 0
753 -750 -752 0
752 750 753 0
-753 0
731 754 0
732 754 0
733 754 0
734 754 0
-755 0
754 -756 -757 0
756 -754 -757 0
757 -754 -756 0
756 754 757 0
-757 0
754 -758 -759 0
758 -754 -759 0
759 -754 -758 0
758 754 759 0
-759 0
754 -760 -761 0
760 -754 -761 0
761 -754 -760 0
760 754 761 0
-761 0
754 -762 -763 0
762 -754 -763 0
763 -754 -762 0
762 754 763 0
-763 0
764 -765 0
766 764 0
765 -766 -764 0
1 -764 0
-1 764 0
767 -768 0
769 767 0
768 -769 -767 0
3 -767 0
-3 767 0
770 -771 0
772 770 0
771 -772 -770 0
4 -770 0
-4 770 0
773 -774 0
775 773 0
774 -775 -773 0
5 -773 0
-5 773 0
776 -777 0
778 776 0
777 -778 -776 0
6 -776 0
-6 776 0
779 -780 0
781 779 0
780 -781 -779 0
7 -779 0
-7 779 0
782 -783 0
784 782 0
783 -784 -782 0
8 -782 0
-8 782 0
785 -786 0
787 785 0
786 -787 -785 0
28 -785 0
-28 785 0
788 -789 0
790 788 0
789 -790 -788 0
30 -788 0
-30 788 0
791 -792 0
793 791 0
792 -793 -791 0
31 -791 0
-31 791 0
794 -795 0
796 794 0
795 -796 -794 0
32 -794 0
-32 794 0
797 -798 0
799 797 0
798 -799 -797 0
33 -797 0
-33 797 0
800 -801 0
802 800 0
801 -802 -800 0
34 -800 0
-34 800 0
803 -804 0
805 803 0
804 -805 -803 0
35 -803 0
-35 803 0
806 -807 0
808 806 0
807 -808 -806 0
36 -806 0
-36 806 0
809 -810 0
811 809 0
810 -811 -809 0
37 -809 0
-37 809 0
812 -813 0
814 812 0
813 -814 -812 0
38 -812 0
-38 812 0
815 -816 0
817 815 0
816 -817 -815 0
39 -815 0
-39 815 0
818 -819 0
820 818 0
819 -820 -818 0
73 -818 0
-73 818 0
821 -822 0
823 821 0
822 -823 -821 0
75 -821 0
-75 821 0
824 -825 0
826 824 0
825 -826 -824 0
76 -824 0
-76 824 0
827 -828 0
829 827 0
828 -829 -827 0
77 -827 0
-77 827 0
830 -831 0
832 830 0
831 -832 -830 0
78 -830 0
-78 830 0
833 -834 0
835 833 0
834 -835 -833 0
79 -833 0
-79 833 0
836 -837 0
838 836 0
837 -838 -836 0
80 -836 0
-80 836 0
839 -840 0
841 839 0
840 -841 -839 0
81 -839 0
-81 839 0
842 -843 0
844 842 0
843 -844 -842 0
82 -842 0
-82 842 0
845 -846 0
847 845 0
846 -847 -845 0
83 -845 0
-83 845 0
848 -849 0
850 848 0
849 -850 -848 0
115 -848 0
-115 848 0
851 -852 0
853 851 0
852 -853 -851 0
117 -851 0
-117 851 0
854 -855 0
856 854 0
855 -856 -854 0
118 -854 0
-118 854 0
857 -858 0
859 857 0
858 -859 -857 0
119 -857 0
-119 857 0
860 -861 0
862 860 0
861 -862 -860 0
130 -860 0
-130 860 0
863 -864 0
865 863 0
864 -865 -863 0
132 -863 0
-132 863 0
866 -867 0
868 866 0
867 -868 -866 0
133 -866 0
-133 866 0
869 -870 0
871 869 0
870 -871 -869 0
134 -869 0
-134 869 0
872 -873 0
874 872 0
873 -874 -872 0
135 -872 0
-135 872 0
875 -876 0
877 875 0
876 -877 -875 0
136 -875 0
-136 875 0
878 -879 0
880 878 0
879 -880 -878 0
137 -878 0
-137 878 0
881 -882 0
883 881 0
882 -883 -881 0
138 -881 0
-138 881 0
884 -885 0
886 884 0
885 -886 -884 0
139 -884 0
-139 884 0
887 -888 0
889 887 0
888 -889 -887 0
140 -887 0
-140 887 0
890 -891 0
892 890 0
891 -892 -890 0
173 -890 0
-173 890 0
893 -894 0
895 893 0
894 -895 -893 0
174 -893 0
-174 893 0
896 -897 0
898 896 0
897 -898 -896 0
175 -896 0
-175 896 0
899 -900 0
901 899 0
900 -901 -899 0
176 -899 0
-176 899 0
902 -903 0
904 902 0
903 -904 -902 0
192 -902 0
-192 902 0
905 -906 0
907 905 0
906 -907 -905 0
194 -905 0
-194 905 0
908 -909 0
910 908 0
909 -910 -908 0
195 -908 0
-195 908 0
911 -912 0
913 911 0
912 -913 -911 0
196 -911 0
-196 911 0
914 -915 0
916 914 0
915 -916 -914 0
197 -914 0
-197 914 0
917 -918 0
919 917 0
918 -919 -917 0
198 -917 0
-198 917 0
920 -921 0
922 920 0
921 -922 -920 0
199 -920 0
-199 920 0
923 -924 0
925 923 0
924 -925 -923 0
200 -923 0
-200 923 0
926 -927 0
928 926 0
927 -928 -926 0
201 -926 0
-201 926 0
929 -930 0
931 929 0
930 -931 -929 0
202 -929 0
-202 929 0
932 -933 0
934 932 0
933 -934 -932 0
203 -932 0
-203 932 0
935 -936 0
937 935 0
936 -937 -935 0
237 -935 0
-237 935 0
938 -939 0
940 938 0
939 -940 -938 0
239 -938 0
-239 938 0
941 -942 0
943 941 0
942 -943 -941 0
240 -941 0
-240 941 0
944 -945 0
946 944 0
945 -946 -944 0
241 -944 0
-241 944 0
947 -948 0
949 947 0
948 -949 -947 0
242 -947 0
-242 947 0
950 -951 0
952 950 0
951 -952 -950 0
243 -950 0
-243 950 0
953 -954 0
955 953 0
954 -955 -953 0
244 -953 0
-244 953 0
956 -957 0
958 956 0
957 -958 -956 0
245 -956 0
-245 956 0
959 -960 0
961 959 0
960 -961 -959 0
246 -959 0
-246 959 0
962 -963 0
964 962 0
963 -964 -962 0
276 -962 0
-276 962 0
965 -966 0
967 965 0
966 -967 -965 0
278 -965 0
-278 965 0
968 -969 0
970 968 0
969 -970 -968 0
279 -968 0
-279 968 0
971 -972 0
973 971 0
972 -973 -971 0
280 -971 0
-280 971 0
974 -975 0
976 974 0
975 -976 -974 0
281 -974 0
-281 974 0
977 -978 0
979 977 0
978 -979 -977 0
282 -977 0
-282 977 0
980 -981 0
982 980 0
981 -982 -980 0
283 -980 0
-283 980 0
983 -984 0
985 983 0
984 -985 -983 0
284 -983 0
-284 983 0
986 -987 0
988 986 0
987 -988 -986 0
285 -986 0
-285 986 0
989 -990 0
991 989 0
990 -991 -989 0
286 -989 0
-286 989 0
992 -993 0
994 992 0
993 -994 -992 0
287 -992 0
-287 992 0
995 -996 0
997 995 0
996 -997 -995 0
321 -995 0
-321 995 0
998 -999 0
1000 998 0
999 -1000 -998 0
323 -998 0
-323 998 0
1001 -1002 0
1003 1001 0
1002 -1003 -1001 0
324 -1001 0
-324 1001 0
1004 -1005 0
1006 1004 0
1005 -1006 -1004 0
325 -1004 0
-325 1004 0
1007 -1008 0
1009 1007 0
1008 -1009 -1007 0
326 -1007 0
-326 1007 0
1010 -1011 0
1012 1010 0
1011 -1012 -1010 0
327 -1010 0
-327 1010 0
1013 -1014 0
1015 1013 0
1014 -1015 -1013 0
328 -1013 0
-328 1013 0
1016 -1017 0
1018 1016 0
1017 -1018 -1016 0
329 -1016 0
-329 1016 0
1019 -1020 0
1021 1019 0
1020 -1021 -1019 0
330 -1019 0
-330 1019 0
1022 -1023 0
1024 1022 0
1023 -1024 -1022 0
331 -1022 0
-331 1022 0
1025 -1026 0
1027 1025 0
1026 -1027 -1025 0
361 -1025 0
-361 1025 0
1028 -1029 0
1030 1028 0
1029 -1030 -1028 0
363 -1028 0
-363 1028 0
1031 -1032 0
1033 1031 0
1032 -1033 -1031 0
364 -1031 0
-364 1031 0
1034 -1035 0
1036 1034 0
1035 -1036 -1034 0
365 -1034 0
-365 1034 0
1037 -1038 0
1039 1037 0
1038 -1039 -1037 0
366 -1037 0
-366 1037 0
1040 -1041 0
1042 1040 0
1041 -1042 -1040 0
367 -1040 0
-367 1040 0
1043 -1044 0
1045 1043 0
1044 -1045 -1043 0
368 -1043 0
-368 1043 0
1046 -1047 0
1048 1046 0
1047 -1048 -1046 0
369 -1046 0
-369 1046 0
1049 -1050 0
1051 1049 0
1050 -1051 -1049 0
370 -1049 0
-370 1049 0
1052 -1053 0
1054 1052 0
1053 -1054 -1052 0
398 -1052 0
-398 1052 0
1055 -1056 0
1057 1055 0
1056 -1057 -1055 0
400 -1055 0
-400 1055 0
1058 -1059 0
1060 1058 0
1059 -1060 -1058 0
401 -1058 0
-401 1058 0
1061 -1062 0
1063 1061 0
1062 -1063 -1061 0
402 -1061 0
-402 1061 0
1064 -1065 0
1066 1064 0
1065 -1066 -1064 0
403 -1064 0
-403 1064 0
1067 -1068 0
1069 1067 0
1068 -1069 -1067 0
404 -1067 0
-404 1067 0
1070 -1071 0
1072 1070 0
1071 -1072 -1070 0
405 -1070 0
-405 1070 0
1073 -1074 0
1075 1073 0
1074 -1075 -1073 0
406 -1073 0
-406 1073 0
1076 -1077 0
1078 1076 0
1077 -1078 -1076 0
407 -1076 0
-407 1076 0
1079 -1080 0
1081 1079 0
1080 -1081 -1079 0
408 -1079 0
-408 1079 0
1082 -1083 0
1084 1082 0
1083 -1084 -1082 0
409 -1082 0
-409 1082 0
1085 -1086 0
1087 1085 0
1086 -1087 -1085 0
443 -1085 0
-443 1085 0
1088 -1089 0
1090 1088 0
1089 -1090 -1088 0
445 -1088 0
-445 1088 0
1091 -1092 0
1093 1091 0
1092 -1093 -1091 0
446 -1091 0
-446 1091 0
1094 -1095 0
1096 1094 0
1095 -1096 -1094 0
447 -1094 0
-447 1094 0
1097 -1098 0
1099 1097 0
1098 -1099 -1097 0
448 -1097 0
-448 1097 0
1100 -1101 0
1102 1100 0
1101 -1102 -1100 0
449 -1100 0
-449 1100 0
1103 -1104 0
1105 1103 0
1104 -1105 -1103 0
450 -1103 0
-450 1103 0
1106 -1107 0
1108 1106 0
1107 -1108 -1106 0
451 -1106 0
-451 1106 0
1109 -1110 0
1111 1109 0
1110 -1111 -1109 0
452 -1109 0
-452 1109 0
1112 -1113 0
1114 1112 0
1113 -1114 -1112 0
453 -1112 0
-453 1112 0
1115 -1116 0
1117 1115 0
1116 -1117 -1115 0
454 -1115 0
-454 1115 0
1118 -1119 0
1120 1118 0
1119 -1120 -1118 0
488 -1118 0
-488 1118 0
1121 -1122 0
1123 1121 0
1122 -1123 -1121 0
490 -1121 0
-490 1121 0
1124 -1125 0
1126 1124 0
1125 -1126 -1124 0
491 -1124 0
-491 1124 0
1127 -1128 0
1129 1127 0
1128 -1129 -1127 0
492 -1127 0
-492 1127 0
1130 -1131 0
1132 1130 0
1131 -1132 -1130 0
493 -1130 0
-493 1130 0
1133 -1134 0
1135 1133 0
1134 -1135 -1133 0
494 -1133 0
-494 1133 0
1136 -1137 0
1138 1136 0
1137 -1138 -1136 0
495 -1136 0
-495 1136 0
1139 -1140 0
1141 1139 0
1140 -1141 -1139 0
496 -1139 0
-496 1139 0
1142 -1143 0
1144 1142 0
1143 -1144 -1142 0
522 -1142 0
-522 1142 0
1145 -1146 0
1147 1145 0
1146 -1147 -1145 0
524 -1145 0
-524 1145 0
1148 -1149 0
1150 1148 0
1149 -1150 -1148 0
525 -1148 0
-525 1148 0
1151 -1152 0
1153 1151 0
1152 -1153 -1151 0
526 -1151 0
-526 1151 0
1154 -1155 0
1156 1154 0
1155 -1156 -1154 0
527 -1154 0
-527 1154 0
1157 -1158 0
1159 1157 0
1158 -1159 -1157 0
528 -1157 0
-528 1157 0
1160 -1161 0
1162 1160 0
1161 -1162 -1160 0
546 -1160 0
-546 1160 0
1163 -1164 0
1165 1163 0
1164 -1165 -1163 0
548 -1163 0
-548 1163 0
1166 -1167 0
1168 1166 0
1167 -1168 -1166 0
549 -1166 0
-549 1166 0
1169 -1170 0
1171 1169 0
1170 -1171 -1169 0
550 -1169 0
-550 1169 0
1172 -1173 0
1174 1172 0
1173 -1174 -1172 0
551 -1172 0
-551 1172 0
1175 -1176 0
1177 1175 0
1176 -1177 -1175 0
552 -1175 0
-552 1175 0
1178 -1179 0
1180 1178 0
1179 -1180 -1178 0
553 -1178 0
-553 1178 0
1181 -1182 0
1183 1181 0
1182 -1183 -1181 0
554 -1181 0
-554 1181 0
1184 -1185 0
1186 1184 0
1185 -1186 -1184 0
555 -1184 0
-555 1184 0
1187 -1188 0
1189 1187 0
1188 -1189 -1187 0
556 -1187 0
-556 1187 0
1190 -1191 0
1192 1190 0
1191 -1192 -1190 0
557 -1190 0
-557 1190 0
1193 -1194 0
1195 1193 0
1194 -1195 -1193 0
591 -1193 0
-591 1193 0
1196 -1197 0
1198 1196 0
1197 -1198 -1196 0
593 -1196 0
-593 1196 0
1199 -1200 0
1201 1199 0
1200 -1201 -1199 0
594 -1199 0
-594 1199 0
1202 -1203 0
1204 1202 0
1203 -1204 -1202 0
595 -1202 0
-595 1202 0
1205 -1206 0
1207 1205 0
1206 -1207 -1205 0
596 -1205 0
-596 1205 0
1208 -1209 0
1210 1208 0
1209 -1210 -1208 0
597 -1208 0
-597 1208 0
1211 -1212 0
1213 1211 0
1212 -1213 -1211 0
598 -1211 0
-598 1211 0
1214 -1215 0
1216 1214 0
1215 -1216 -1214 0
599 -1214 0
-599 1214 0
1217 -1218 0
1219 1217 0
1218 -1219 -1217 0
600 -1217 0
-600 1217 0
1220 -1221 0
1222 1220 0
1221 -1222 -1220 0
601 -1220 0
-601 1220 0
1223 -1224 0
1225 1223 0
1224 -1225 -1223 0
631 -1223 0
-631 1223 0
1226 -1227 0
1228 1226 0
1227 -1228 -1226 0
633 -1226 0
-633 1226 0
1229 -1230 0
1231 1229 0
1230 -1231 -1229 0
634 -1229 0
-634 1229 0
1232 -1233 0
1234 1232 0
1233 -1234 -1232 0
635 -1232 0
-635 1232 0
1235 -1236 0
1237 1235 0
1236 -1237 -1235 0
636 -1235 0
-636 1235 0
1238 -1239 0
1240 1238 0
1239 -1240 -1238 0
637 -1238 0
-637 1238 0
1241 -1242 0
1243 1241 0
1242 -1243 -1241 0
638 -1241 0
-638 1241 0
1244 -1245 0
1246 1244 0
1245 -1246 -1244 0
639 -1244 0
-639 1244 0
1247 -1248 0
1249 1247 0
1248 -1249 -1247 0
640 -1247 0
-640 1247 0
1250 -1251 0
1252 1250 0
1251 -1252 -1250 0
641 -1250 0
-641 1250 0
1253 -1254 0
1255 1253 0
1254 -1255 -1253 0
642 -1253 0
-642 1253 0
1256 -1257 0
1258 1256 0
1257 -1258 -1256 0
643 -1256 0
-643 1256 0
1259 -1260 0
1261 1259 0
1260 -1261 -1259 0
681 -1259 0
-681 1259 0
1262 -1263 0
1264 1262 0
1263 -1264 -1262 0
683 -1262 0
-683 1262 0
1265 -1266 0
1267 1265 0
1266 -1267 -1265 0
684 -1265 0
-684 1265 0
1268 -1269 0
1270 1268 0
1269 -1270 -1268 0
685 -1268 0
-685 1268 0
1271 -1272 0
1273 1271 0
1272 -1273 -1271 0
686 -1271 0
-686 1271 0
1274 -1275 0
1276 1274 0
1275 -1276 -1274 0
687 -1274 0
-687 1274 0
1277 -1278 0
1279 1277 0
1278 -1279 -1277 0
688 -1277 0
-688 1277 0
1280 -1281 0
1282 1280 0
1281 -1282 -1280 0
689 -1280 0
-689 1280 0
1283 -1284 0
1285 1283 0
1284 -1285 -1283 0
690 -1283 0
-690 1283 0
1286 -1287 0
1288 1286 0
1287 -1288 -1286 0
691 -1286 0
-691 1286 0
1289 -1290 0
1291 1289 0
1290 -1291 -1289 0
725 -1289 0
-725 1289 0
1292 -1293 0
1294 1292 0
1293 -1294 -1292 0
727 -1292 0
-727 1292 0
1295 -1296 0
1297 1295 0
1296 -1297 -1295 0
728 -1295 0
-728 1295 0
1298 -1299 0
1300 1298 0
1299 -1300 -1298 0
729 -1298 0
-729 1298 0
1301 -1302 0
1303 1301 0
1302 -1303 -1301 0
730 -1301 0
-730 1301 0
1304 -1305 0
1306 1304 0
1305 -1306 -1304 0
731 -1304 0
-731 1304 0
1307 -1308 0
1309 1307 0
1308 -1309 -1307 0
732 -1307 0
-732 1307 0
1310 -1311 0
1312 1310 0
1311 -1312 -1310 0
733 -1310 0
-733 1310 0
1313 -1314 0
1315 1313 0
1314 -1315 -1313 0
734 -1313 0
-734 1313 0
-766 0
769 0
772 0
-775 0
-778 0
-781 0
-784 0
-787 0
-790 0
-793 0
-796 0
-799 0
802 0
-805 0
808 0
-811 0
-814 0
-817 0
-820 0
823 0
826 0
829 0
832 0
835 0
838 0
841 0
844 0
-847 0
-850 0
-853 0
856 0
-859 0
-862 0
-865 0
-868 0
-871 0
874 0
877 0
880 0
883 0
-886 0
-889 0
-892 0
-895 0
898 0
-901 0
-904 0
-907 0
910 0
913 0
-916 0
919 0
-922 0
-925 0
-928 0
-931 0
934 0
937 0
-940 0
-943 0
946 0
-949 0
952 0
-955 0
958 0
961 0
-964 0
-967 0
970 0
973 0
-976 0
-979 0
982 0
985 0
988 0
991 0
994 0
-997 0
-1000 0
-1003 0
1006 0
1009 0
1012 0
-1015 0
1018 0
-1021 0
-1024 0
-1027 0
1030 0
-1033 0
1036 0
1039 0
1042 0
1045 0
-1048 0
1051 0
-1054 0
-1057 0
-1060 0
-1063 0
1066 0
-1069 0
1072 0
1075 0
1078 0
-1081 0
-1084 0
-1087 0
-1090 0
1093 0
-1096 0
-1099 0
-1102 0
1105 0
1108 0
1111 0
1114 0
-1117 0
1120 0
1123 0
-1126 0
1129 0
1132 0
1135 0
-1138 0
-1141 0
1144 0
-1147 0
1150 0
1153 0
-1156 0
1159 0
-1162 0
-1165 0
-1168 0
1171 0
-1174 0
1177 0
1180 0
1183 0
-1186 0
-1189 0
1192 0
-1195 0
-1198 0
1201 0
-1204 0
1207 0
-1210 0
-1213 0
1216 0
1219 0
1222 0
1225 0
-1228 0
1231 0
-1234 0
1237 0
1240 0
-1243 0
-1246 0
-1249 0
-1252 0
1255 0
1258 0
1261 0
1264 0
1267 0
1270 0
-1273 0
-1276 0
1279 0
-1282 0
-1285 0
1288 0
1291 0
-1294 0
1297 0
1300 0
-1303 0
1306 0
-1309 0
1312 0
1315 0
10 0
41 0
85 0
121 0
142 0
178 0
205 0
248 0
289 0
333 0
-372 0
-411 0
-456 0
-498 0
-530 0
-559 0
-603 0
-645 0
-693 0
-736 0
